data;


param d:= 100;
param r:=5;
param p:=0.100000;
param M:=1000;
param U:=
         1         1       -1.542629e+00
         2         1        8.468019e-01
         3         1        1.484497e+00
         4         1       -1.163048e+00
         5         1        4.120741e-01
         6         1       -3.949084e-01
         7         1       -9.597335e-01
         8         1       -6.368106e-02
         9         1       -1.576820e+00
        10         1       -1.533292e-01
        11         1       -4.586365e-01
        12         1       -9.798657e-01
        13         1        1.927968e-01
        14         1       -1.532751e+00
        15         1       -9.795398e-01
        16         1        1.126904e+00
        17         1       -4.026144e-02
        18         1        8.616727e-01
        19         1        9.167416e-01
        20         1        1.032364e+00
        21         1        1.684582e+00
        22         1       -1.941995e-01
        23         1       -1.755006e-01
        24         1        3.325118e-01
        25         1       -2.759756e-01
        26         1       -2.467875e-01
        27         1        1.075810e+00
        28         1        3.877280e-01
        29         1        6.980865e-01
        30         1       -5.045260e-02
        31         1       -7.057502e-01
        32         1        7.631809e-02
        33         1       -6.655342e-02
        34         1        8.351543e-01
        35         1        3.364928e-01
        36         1        1.557656e+00
        37         1       -7.618115e-01
        38         1       -8.197118e-01
        39         1        5.474498e-01
        40         1        1.621823e-01
        41         1       -1.263929e+00
        42         1        3.792866e-01
        43         1       -4.619711e-01
        44         1        8.830737e-01
        45         1        1.453731e-01
        46         1        1.379671e+00
        47         1       -3.241863e-01
        48         1        1.368603e+00
        49         1        9.101876e-01
        50         1       -1.074965e+00
        51         1        7.569870e-01
        52         1       -7.552284e-01
        53         1        1.833422e+00
        54         1        1.621483e-01
        55         1       -5.093987e-01
        56         1       -1.031308e+00
        57         1       -2.105709e-01
        58         1        1.359371e+00
        59         1       -1.781029e+00
        60         1        1.953131e+00
        61         1       -1.412710e-01
        62         1        2.333073e+00
        63         1        7.622885e-01
        64         1       -8.638985e-01
        65         1       -1.538577e+00
        66         1        9.491056e-01
        67         1        6.494830e-01
        68         1       -1.031432e+00
        69         1       -1.544813e+00
        70         1        1.303749e+00
        71         1       -5.326321e-01
        72         1        2.301986e-01
        73         1       -1.330336e+00
        74         1        1.367824e+00
        75         1       -1.402222e+00
        76         1        4.342076e-01
        77         1       -3.827632e-01
        78         1        9.854840e-01
        79         1        6.917307e-01
        80         1        9.272173e-01
        81         1        4.664243e-01
        82         1       -2.948796e+00
        83         1       -1.423840e+00
        84         1       -4.850915e-01
        85         1       -9.458078e-01
        86         1        1.018614e+00
        87         1        2.064743e+00
        88         1       -4.923867e-01
        89         1       -9.929618e-02
        90         1       -2.212232e-01
        91         1        3.912835e-01
        92         1        4.077229e-02
        93         1        1.248025e+00
        94         1       -7.537864e-01
        95         1        1.546436e-01
        96         1        3.720851e-01
        97         1       -7.637577e-01
        98         1       -1.646544e+00
        99         1        1.256495e+00
       100         1       -1.518897e+00
         1         2       -4.977714e-01
         2         2        1.987043e+00
         3         2       -5.404317e-01
         4         2       -3.187158e-01
         5         2       -9.929617e-01
         6         2       -7.319221e-01
         7         2        3.429472e-01
         8         2       -7.139020e-01
         9         2       -7.115405e-01
        10         2       -4.846784e-01
        11         2        6.539310e-01
        12         2       -1.161135e+00
        13         2        4.197015e-01
        14         2        1.289425e+00
        15         2       -1.200368e+00
        16         2       -1.293845e+00
        17         2        1.660591e+00
        18         2       -1.645457e-01
        19         2        1.986447e-01
        20         2       -7.365757e-01
        21         2        2.062168e+00
        22         2        1.440776e-01
        23         2        1.366261e+00
        24         2       -4.855502e-01
        25         2       -6.832088e-01
        26         2       -6.446990e-01
        27         2       -7.511379e-01
        28         2        1.164896e-01
        29         2       -1.292060e-01
        30         2        7.979683e-01
        31         2        8.280133e-01
        32         2       -6.974939e-01
        33         2       -8.372000e-01
        34         2       -4.583071e-01
        35         2       -1.741464e+00
        36         2       -1.407616e+00
        37         2        5.167859e-01
        38         2       -1.123892e+00
        39         2       -2.412539e+00
        40         2       -1.565673e+00
        41         2        6.322315e-01
        42         2       -5.730569e-01
        43         2        6.192416e-01
        44         2        2.853910e-01
        45         2       -1.090800e+00
        46         2        5.590609e-01
        47         2        7.408281e-01
        48         2       -1.948363e+00
        49         2       -1.918922e+00
        50         2       -1.889023e-01
        51         2        2.092582e-01
        52         2        3.228457e-01
        53         2       -1.483932e+00
        54         2       -8.090766e-01
        55         2        3.181583e-01
        56         2       -1.516528e+00
        57         2        4.734963e-01
        58         2        3.747961e-03
        59         2        2.041995e-01
        60         2       -3.667354e-02
        61         2       -2.761948e-02
        62         2        8.709365e-01
        63         2       -1.605071e+00
        64         2       -5.110282e-01
        65         2        1.073961e+00
        66         2       -1.471356e+00
        67         2        1.404816e+00
        68         2       -9.063966e-01
        69         2        3.505759e-01
        70         2       -3.427598e-01
        71         2       -1.731744e-02
        72         2       -1.897305e-01
        73         2        6.116319e-01
        74         2        2.728566e-01
        75         2        1.999709e+00
        76         2       -1.087680e+00
        77         2       -5.513499e-01
        78         2       -7.158642e-02
        79         2       -4.955275e-01
        80         2        1.487182e+00
        81         2       -1.321526e+00
        82         2       -7.524253e-01
        83         2       -2.416488e-01
        84         2       -1.579566e-01
        85         2        2.462865e-01
        86         2       -6.034018e-01
        87         2       -1.084845e+00
        88         2        7.786148e-01
        89         2       -1.103458e+00
        90         2        3.110726e-01
        91         2       -9.731865e-01
        92         2       -2.489878e-01
        93         2       -5.299400e-01
        94         2       -9.199598e-01
        95         2        6.241958e-01
        96         2        3.328865e-01
        97         2        4.750215e-01
        98         2       -6.352061e-01
        99         2        8.132063e-01
       100         2        2.532701e-01
         1         3        6.561562e-01
         2         3       -4.444852e-01
         3         3       -4.715533e-01
         4         3       -1.258123e-01
         5         3        1.372114e+00
         6         3       -7.116262e-01
         7         3       -9.533326e-02
         8         3       -6.534105e-01
         9         3       -8.600855e-01
        10         3        1.358561e-01
        11         3       -9.841202e-01
        12         3        9.489308e-01
        13         3       -4.633229e-01
        14         3       -1.048792e+00
        15         3        2.464988e+00
        16         3       -4.836382e-01
        17         3        6.412957e-01
        18         3        2.437860e+00
        19         3       -2.609664e+00
        20         3       -1.109083e+00
        21         3        1.613363e+00
        22         3        6.261431e-01
        23         3       -1.816597e+00
        24         3       -1.259140e+00
        25         3        1.157086e+00
        26         3       -7.076702e-02
        27         3        8.308014e-01
        28         3       -3.514996e-01
        29         3       -1.022216e+00
        30         3       -8.192614e-02
        31         3        4.711900e-01
        32         3        5.847569e-01
        33         3        1.995590e-01
        34         3       -8.310766e-01
        35         3        1.296477e+00
        36         3        5.714351e-01
        37         3        6.679171e-01
        38         3       -1.252498e+00
        39         3        8.751916e-01
        40         3       -5.399221e-01
        41         3       -8.799897e-01
        42         3        1.292253e+00
        43         3       -1.621122e+00
        44         3        3.325192e-01
        45         3       -1.038749e+00
        46         3       -2.500060e-01
        47         3        8.355099e-01
        48         3        1.636383e-02
        49         3        8.340464e-02
        50         3       -1.227439e+00
        51         3       -2.310169e-01
        52         3       -2.106472e-01
        53         3        1.785119e-01
        54         3        1.901665e+00
        55         3       -1.015333e+00
        56         3       -6.128410e-01
        57         3       -2.053646e-01
        58         3       -6.328288e-01
        59         3        6.098802e-01
        60         3        1.625864e+00
        61         3       -2.640082e+00
        62         3       -1.301037e+00
        63         3        7.317475e-01
        64         3        2.005013e-01
        65         3        3.206890e-01
        66         3       -9.465269e-02
        67         3        1.436368e+00
        68         3        4.235513e-03
        69         3       -7.903401e-01
        70         3        1.197890e+00
        71         3       -5.077191e-01
        72         3       -1.112265e+00
        73         3       -2.251064e-01
        74         3       -8.438550e-02
        75         3       -1.844187e-02
        76         3        2.056790e+00
        77         3       -5.924349e-01
        78         3        2.136200e-01
        79         3        7.381473e-01
        80         3        1.112420e+00
        81         3       -4.258554e-01
        82         3        9.830806e-01
        83         3        1.049357e-01
        84         3       -7.171931e-01
        85         3       -6.212755e-01
        86         3       -2.067355e-01
        87         3        8.697432e-01
        88         3       -5.300884e-01
        89         3       -3.677597e-01
        90         3        1.003699e+00
        91         3        1.288726e+00
        92         3        1.129100e+00
        93         3        9.608048e-01
        94         3       -5.244757e-01
        95         3       -2.381240e+00
        96         3        1.324598e+00
        97         3       -7.123909e-01
        98         3       -5.445767e-01
        99         3        4.092053e-01
       100         3       -2.352056e-01
         1         4       -6.996317e-01
         2         4        2.140190e-01
         3         4       -7.943116e-01
         4         4       -6.615075e-02
         5         4       -1.209321e+00
         6         4        1.898613e+00
         7         4        1.120440e+00
         8         4        2.738314e+00
         9         4        1.839408e+00
        10         4        8.875573e-01
        11         4       -3.739589e-01
        12         4       -1.344959e-01
        13         4        8.250014e-01
        14         4        7.544313e-01
        15         4       -1.842429e+00
        16         4       -2.394361e+00
        17         4       -2.457555e-01
        18         4       -1.215142e+00
        19         4        7.175055e-01
        20         4        9.346363e-01
        21         4       -4.983945e-02
        22         4        1.203628e+00
        23         4       -2.158398e+00
        24         4       -2.150882e+00
        25         4       -1.445149e+00
        26         4       -1.146041e-01
        27         4        2.117995e-01
        28         4        6.399265e-01
        29         4        3.194082e-01
        30         4        2.011955e+00
        31         4       -1.875799e-02
        32         4        2.062166e-01
        33         4        1.422390e-01
        34         4       -4.780439e-02
        35         4        1.012246e-01
        36         4        6.067772e-02
        37         4       -2.157467e+00
        38         4        9.114564e-01
        39         4        1.212802e+00
        40         4       -9.429728e-01
        41         4        5.864182e-02
        42         4       -5.266092e-01
        43         4       -1.379434e+00
        44         4        4.800816e-01
        45         4        8.016034e-01
        46         4        9.625484e-01
        47         4       -4.506554e-01
        48         4        2.931838e-01
        49         4       -1.165494e+00
        50         4        9.195313e-01
        51         4        9.510160e-02
        52         4        5.620470e-01
        53         4       -9.603193e-01
        54         4       -1.132329e+00
        55         4        6.215327e-01
        56         4       -1.181167e-01
        57         4       -4.816759e-01
        58         4       -5.121339e-01
        59         4        1.136155e+00
        60         4        6.676625e-01
        61         4       -3.575096e-01
        62         4       -6.047383e-01
        63         4        1.347513e+00
        64         4       -4.950054e-01
        65         4        1.672577e+00
        66         4       -2.266691e-01
        67         4       -2.051336e+00
        68         4       -9.984407e-02
        69         4       -5.379732e-01
        70         4       -1.710293e-03
        71         4       -8.431134e-02
        72         4       -3.840088e-02
        73         4       -1.812248e-01
        74         4       -1.308542e+00
        75         4        2.527059e-01
        76         4       -3.535951e-01
        77         4        2.953245e-01
        78         4        1.444585e+00
        79         4        1.933145e+00
        80         4       -4.674589e-01
        81         4        2.606848e+00
        82         4       -9.194795e-01
        83         4       -4.993824e-01
        84         4        3.413232e-01
        85         4       -1.895293e+00
        86         4       -7.597764e-02
        87         4        1.808893e-01
        88         4       -1.315601e+00
        89         4        2.560639e-01
        90         4       -1.249561e+00
        91         4        1.461932e+00
        92         4       -8.965480e-01
        93         4       -8.345766e-01
        94         4       -8.807807e-01
        95         4        6.656060e-02
        96         4        2.502175e-01
        97         4        3.163140e-01
        98         4       -9.690305e-01
        99         4       -5.946092e-01
       100         4       -8.095624e-01
         1         5       -2.715305e-01
         2         5       -9.026347e-01
         3         5        4.600587e-01
         4         5        1.121285e+00
         5         5       -1.354035e-01
         6         5        6.343861e-02
         7         5        4.316579e-02
         8         5        1.359269e+00
         9         5       -1.517865e+00
        10         5        8.606790e-01
        11         5       -5.724398e-01
        12         5       -8.890248e-01
        13         5       -4.472709e-02
        14         5       -2.212991e+00
        15         5       -5.407605e-01
        16         5        6.731775e-02
        17         5       -7.229125e-01
        18         5        1.068155e+00
        19         5       -1.211642e+00
        20         5       -5.197173e-01
        21         5       -1.003496e+00
        22         5        6.864981e-02
        23         5        1.538338e+00
        24         5       -8.629450e-01
        25         5        1.209705e+00
        26         5        1.577586e+00
        27         5        1.644370e+00
        28         5       -6.783541e-01
        29         5       -7.521445e-01
        30         5        1.579871e+00
        31         5        1.218759e+00
        32         5        2.195671e-01
        33         5        1.331034e+00
        34         5       -1.610547e+00
        35         5       -4.034512e-01
        36         5        5.982733e-01
        37         5       -9.403888e-01
        38         5        2.335683e-01
        39         5        3.625108e-01
        40         5        1.813787e+00
        41         5       -8.074799e-01
        42         5       -1.999660e-01
        43         5        1.412352e-01
        44         5        1.780430e+00
        45         5       -7.641607e-01
        46         5        3.848806e-02
        47         5        1.081393e+00
        48         5       -2.166108e+00
        49         5       -1.588651e+00
        50         5        1.421342e+00
        51         5        4.025666e-01
        52         5       -9.638025e-01
        53         5        1.595778e+00
        54         5       -7.049916e-01
        55         5        1.712815e-02
        56         5        6.986590e-01
        57         5       -8.230926e-01
        58         5        9.607352e-01
        59         5       -2.223117e+00
        60         5        4.107932e-01
        61         5        1.145752e-01
        62         5        1.059903e+00
        63         5       -1.299834e+00
        64         5        4.698490e-01
        65         5        2.909388e-01
        66         5       -1.286926e-01
        67         5        1.381003e+00
        68         5        9.005779e-01
        69         5       -1.014378e+00
        70         5       -9.696246e-01
        71         5       -1.012119e-01
        72         5        1.780310e-01
        73         5        7.486970e-01
        74         5       -6.593513e-01
        75         5       -6.825355e-01
        76         5        1.962305e-02
        77         5       -4.121567e-01
        78         5        1.694583e+00
        79         5       -2.449931e-01
        80         5        1.425153e+00
        81         5       -1.323333e-01
        82         5       -9.380868e-01
        83         5       -2.345715e-01
        84         5       -5.708701e-02
        85         5       -8.281159e-01
        86         5       -6.522092e-01
        87         5       -1.677961e+00
        88         5        6.464424e-01
        89         5        1.628067e-01
        90         5        1.422839e+00
        91         5       -1.195784e+00
        92         5        4.704711e-03
        93         5       -7.183996e-02
        94         5       -3.940020e-01
        95         5        1.109597e+00
        96         5        9.287422e-01
        97         5        8.240896e-01
        98         5       -7.898753e-01
        99         5       -1.239676e+00
       100         5        2.145077e-01
;

param theta:=
    1        3.088962e-01
    2       -1.992857e+00
    3        6.234880e-01
    4       -3.111354e-01
    5       -1.213323e+00
;
param X_true:=
    1        1.466775e+00
    2       -2.855166e+00
    3        6.512210e-01
    4       -1.107581e+00
    5        3.524587e+00
    6        2.752475e-01
    7       -1.404626e+00
    8       -1.448791e+00
    9        1.740184e+00
   10       -3.285340e-01
   11       -1.200420e+00
   12        3.583810e+00
   13       -1.266162e+00
   14       -1.151213e+00
   15        4.814831e+00
   16        3.524995e+00
   17       -2.045530e+00
   18        1.291599e+00
   19       -4.375145e-01
   20        1.469058e+00
   21       -1.297258e+00
   22       -4.786952e-01
   23       -5.067371e+00
   24        1.927863e+00
   25        1.029451e+00
   26       -7.544540e-01
   27        2.544000e-01
   28        2.277650e-01
   29        7.595267e-01
   30       -4.274941e+00
   31       -3.236196e+00
   32        1.355346e+00
   33        1.596071e-01
   34        2.515622e+00
   35        4.922308e+00
   36        2.997062e+00
   37        1.079169e+00
   38        8.755940e-01
   39        4.618698e+00
   40        8.080036e-01
   41       -1.254324e+00
   42        2.524082e+00
   43       -2.068785e+00
   44       -2.369150e+00
   45        2.272976e+00
   46       -1.230340e+00
   47       -2.304141e+00
   48        6.732096e+00
   49        6.472938e+00
   50       -2.800840e+00
   51       -8.454940e-01
   52        8.946950e-02
   53        2.205745e+00
   54        3.941878e+00
   55       -1.677034e+00
   56        1.624512e+00
   57       -1.253718e-01
   58       -1.075106e+00
   59        1.736805e+00
   60        9.545904e-01
   61       -1.611550e+00
   62       -2.932943e+00
   63        5.039561e+00
   64        4.658430e-01
   65       -3.176159e+00
   66        3.455447e+00
   67       -2.740754e+00
   68        4.939823e-01
   69       -1.007736e-01
   70        3.139947e+00
   71       -4.618111e-01
   72       -4.994736e-01
   73       -2.733684e+00
   74        1.107186e+00
   75       -3.550166e+00
   76        3.607935e+00
   77        8.997195e-01
   78       -2.007927e+00
   79        1.382731e+00
   80       -3.504258e+00
   81        1.755543e+00
   82        2.797185e+00
   83        5.946048e-01
   84       -1.892515e-01
   85        3.317283e-01
   86        2.149373e+00
   87        5.251406e+00
   88       -2.303629e+00
   89        1.660498e+00
   90       -1.458762e+00
   91        3.787427e+00
   92        1.337156e+00
   93        2.293564e+00
   94        1.842231e+00
   95       -4.160060e+00
   96       -1.012094e+00
   97       -2.621273e+00
   98        1.840408e+00
   99        7.875816e-01
  100       -1.061513e+00
;
param X:=
    1       -6.246005e-01
    2       -2.855166e+00
    3        6.512210e-01
    4       -1.107581e+00
    5        3.524587e+00
    6        2.752475e-01
    7       -1.404626e+00
    8       -1.448791e+00
    9        1.740184e+00
   10       -3.285340e-01
   11       -1.200420e+00
   12        3.583810e+00
   13       -1.266162e+00
   14       -1.151213e+00
   15        1.428890e+00
   16        3.524995e+00
   17       -2.045530e+00
   18        1.291599e+00
   19       -4.375145e-01
   20        1.469058e+00
   21       -1.297258e+00
   22       -4.786952e-01
   23       -5.067371e+00
   24        1.927863e+00
   25        1.029451e+00
   26       -7.544540e-01
   27        2.544000e-01
   28        2.277650e-01
   29       -1.182888e+00
   30       -4.274941e+00
   31       -3.236196e+00
   32        1.355346e+00
   33        1.596071e-01
   34        2.515622e+00
   35        4.922308e+00
   36        2.997062e+00
   37        1.079169e+00
   38        8.755940e-01
   39        4.618698e+00
   40        8.080036e-01
   41       -1.254324e+00
   42        2.524082e+00
   43       -2.068785e+00
   44       -2.369150e+00
   45        1.388305e-01
   46       -1.230340e+00
   47       -2.304141e+00
   48        6.732096e+00
   49        6.472938e+00
   50       -2.800840e+00
   51       -8.454940e-01
   52        8.946950e-02
   53        2.205745e+00
   54        9.936456e-01
   55       -1.677034e+00
   56        1.624512e+00
   57       -1.253718e-01
   58       -1.075106e+00
   59        1.736805e+00
   60        2.741862e-01
   61       -1.611550e+00
   62       -2.932943e+00
   63        5.039561e+00
   64       -5.592497e-01
   65       -3.176159e+00
   66        3.455447e+00
   67       -2.740754e+00
   68        4.939823e-01
   69       -1.007736e-01
   70        3.139947e+00
   71       -4.618111e-01
   72       -4.994736e-01
   73       -2.733684e+00
   74       -5.335411e-02
   75       -3.550166e+00
   76        3.607935e+00
   77        8.997195e-01
   78       -2.007927e+00
   79        1.382731e+00
   80       -3.504258e+00
   81        1.755543e+00
   82        2.797185e+00
   83        5.946048e-01
   84       -1.892515e-01
   85        3.317283e-01
   86        2.149373e+00
   87        5.251406e+00
   88       -2.303629e+00
   89        1.660498e+00
   90       -1.458762e+00
   91        3.787427e+00
   92        1.337156e+00
   93        2.293564e+00
   94        1.842231e+00
   95       -4.160060e+00
   96       -1.012094e+00
   97       -2.621273e+00
   98        1.840408e+00
   99       -2.128032e-01
  100        1.471110e+00
;
param outliervec:=
    1    1
    2    0
    3    0
    4    0
    5    0
    6    0
    7    0
    8    0
    9    0
   10    0
   11    0
   12    0
   13    0
   14    0
   15    1
   16    0
   17    0
   18    0
   19    0
   20    0
   21    0
   22    0
   23    0
   24    0
   25    0
   26    0
   27    0
   28    0
   29    1
   30    0
   31    0
   32    0
   33    0
   34    0
   35    0
   36    0
   37    0
   38    0
   39    0
   40    0
   41    0
   42    0
   43    0
   44    0
   45    1
   46    0
   47    0
   48    0
   49    0
   50    0
   51    0
   52    0
   53    0
   54    1
   55    0
   56    0
   57    0
   58    0
   59    0
   60    1
   61    0
   62    0
   63    0
   64    1
   65    0
   66    0
   67    0
   68    0
   69    0
   70    0
   71    0
   72    0
   73    0
   74    1
   75    0
   76    0
   77    0
   78    0
   79    0
   80    0
   81    0
   82    0
   83    0
   84    0
   85    0
   86    0
   87    0
   88    0
   89    0
   90    0
   91    0
   92    0
   93    0
   94    0
   95    0
   96    0
   97    0
   98    0
   99    1
  100    1
;